<?xml version = "1.0" standalone="yes"?>
<!-- This file has been generated by DOcplex version 2.23.222  -->
<CPLEXSolution version="1.0">
 <header
   problemName="CVRP"
   objectiveValue="10973.5"
  />
 <variables>
  <variable name="x_0_3" index="2" value="1.00000"/>
  <variable name="x_0_4" index="3" value="1.00000"/>
  <variable name="x_0_6" index="5" value="1.00000"/>
  <variable name="x_0_7" index="6" value="1.00000"/>
  <variable name="x_0_8" index="7" value="1.00000"/>
  <variable name="x_0_10" index="9" value="1.00000"/>
  <variable name="x_0_11" index="10" value="1.00000"/>
  <variable name="x_0_16" index="15" value="1.00000"/>
  <variable name="x_0_17" index="16" value="1.00000"/>
  <variable name="x_0_19" index="18" value="1.00000"/>
  <variable name="x_1_0" index="22" value="1.00000"/>
  <variable name="x_2_0" index="44" value="1.00000"/>
  <variable name="x_3_0" index="66" value="1.00000"/>
  <variable name="x_4_14" index="101" value="1.00000"/>
  <variable name="x_5_0" index="110" value="1.00000"/>
  <variable name="x_6_0" index="132" value="1.00000"/>
  <variable name="x_7_0" index="154" value="1.00000"/>
  <variable name="x_8_22" index="197" value="1.00000"/>
  <variable name="x_9_0" index="198" value="1.00000"/>
  <variable name="x_10_0" index="220" value="1.00000"/>
  <variable name="x_11_15" index="256" value="1.00000"/>
  <variable name="x_12_9" index="273" value="1.00000"/>
  <variable name="x_13_5" index="291" value="1.00000"/>
  <variable name="x_14_0" index="308" value="1.00000"/>
  <variable name="x_15_2" index="332" value="1.00000"/>
  <variable name="x_16_13" index="365" value="1.00000"/>
  <variable name="x_17_12" index="386" value="1.00000"/>
  <variable name="x_18_20" index="415" value="1.00000"/>
  <variable name="x_19_18" index="436" value="1.00000"/>
  <variable name="x_20_0" index="440" value="1.00000"/>
  <variable name="x_21_1" index="463" value="1.00000"/>
  <variable name="x_22_21" index="505" value="1.00000"/>
  <variable name="u_1" index="506" value="72.00000"/>
  <variable name="u_2" index="507" value="71.00000"/>
  <variable name="u_3" index="508" value="56.00000"/>
  <variable name="u_4" index="509" value="24.00000"/>
  <variable name="u_5" index="510" value="71.00000"/>
  <variable name="u_6" index="511" value="66.00000"/>
  <variable name="u_7" index="512" value="72.00000"/>
  <variable name="u_8" index="513" value="32.00000"/>
  <variable name="u_9" index="514" value="72.00000"/>
  <variable name="u_10" index="515" value="63.00000"/>
  <variable name="u_11" index="516" value="9.00000"/>
  <variable name="u_12" index="517" value="67.00000"/>
  <variable name="u_13" index="518" value="47.00000"/>
  <variable name="u_14" index="519" value="72.00000"/>
  <variable name="u_15" index="520" value="13.00000"/>
  <variable name="u_16" index="521" value="31.00000"/>
  <variable name="u_17" index="522" value="23.00000"/>
  <variable name="u_18" index="523" value="68.00000"/>
  <variable name="u_19" index="524" value="30.00000"/>
  <variable name="u_20" index="525" value="71.00000"/>
  <variable name="u_21" index="526" value="70.00000"/>
  <variable name="u_22" index="527" value="54.00000"/>
 </variables>
</CPLEXSolution>
